1969564
6,10,25,54,65,33,45,42,21,56,9,43,13,17,32,51,30,27,49,67,34,50,38,61,36,52,7,14,35,58,26,8,16,57,19,3,47,62,15,1,44,64,12,46,23,20,2,60,11,31,39,4,55,41,53,0,18,48,22,28,24,29,40,59,5,63,37,66